unknown
(model
; cardinality of BoundSet is 4
(declare-sort BoundSet 0)
; rep: @uc_BoundSet_0
; rep: @uc_BoundSet_1
; rep: @uc_BoundSet_2
; rep: @uc_BoundSet_3
; cardinality of UnboundSet is 1
(declare-sort UnboundSet 0)
(declare-fun groundTerm_5 () UnboundSet)
(define-fun IsMemberOf ((BOUND_VARIABLE_503 BoundSet) (BOUND_VARIABLE_504 BoundSet)) Bool (ite (= @uc_BoundSet_0 BOUND_VARIABLE_503) (= @uc_BoundSet_1 BOUND_VARIABLE_504) false))
(define-fun IsInJail ((BOUND_VARIABLE_515 BoundSet)) Bool true)
(define-fun IsTrueMember ((BOUND_VARIABLE_515 BoundSet)) Bool false)
(define-fun IsUpstandingCitizen ((BOUND_VARIABLE_515 BoundSet)) Bool false)
(define-fun IsInCommunity ((BOUND_VARIABLE_503 BoundSet) (BOUND_VARIABLE_504 BoundSet)) Bool false)
(define-fun DoesNotGoToJail ((BOUND_VARIABLE_515 BoundSet)) Bool false)
)
sat
(model
; cardinality of BoundSet is 1
(declare-sort BoundSet 0)
; rep: @uc_BoundSet_0
; cardinality of UnboundSet is 1
(declare-sort UnboundSet 0)
(declare-fun groundTerm_10 () UnboundSet)
(define-fun IsMemberOf ((BOUND_VARIABLE_583 BoundSet) (BOUND_VARIABLE_584 BoundSet)) Bool true)
(define-fun IsInJail ((BOUND_VARIABLE_587 BoundSet)) Bool true)
(define-fun IsTrueMember ((BOUND_VARIABLE_587 BoundSet)) Bool false)
(define-fun IsUpstandingCitizen ((BOUND_VARIABLE_587 BoundSet)) Bool false)
(define-fun IsInCommunity ((BOUND_VARIABLE_583 BoundSet) (BOUND_VARIABLE_584 BoundSet)) Bool true)
(define-fun DoesNotGoToJail ((BOUND_VARIABLE_587 BoundSet)) Bool true)
)
